c This is the enc3 file generate by sty
p cnf 678 951
 1 2 0
 -1 -2 0
 3 4 0
 -3 -4 0
 5 6 0
 -5 -6 0
 7 8 0
 -7 -8 0
 9 10 0
 -9 -10 0
 11 12 0
 -11 -12 0
 13 14 0
 -13 -14 0
 15 16 0
 -15 -16 0
 17 18 0
 -17 -18 0
 19 20 0
 -19 -20 0
 21 22 0
 -21 -22 0
 23 24 0
 -23 -24 0
 25 26 0
 -25 -26 0
 27 28 0
 -27 -28 0
 29 30 0
 -29 -30 0
 31 32 0
 -31 -32 0
 33 34 0
 -33 -34 0
 35 36 0
 -35 -36 0
 37 38 0
 -37 -38 0
 39 40 0
 -39 -40 0
 41 42 0
 -41 -42 0
 43 44 0
 -43 -44 0
 45 46 0
 -45 -46 0
 47 48 0
 -47 -48 0
 49 50 0
 -49 -50 0
 51 52 0
 -51 -52 0
 53 54 0
 -53 -54 0
 55 56 0
 -55 -56 0
 57 58 0
 -57 -58 0
 59 60 0
 -59 -60 0
 61 62 0
 -61 -62 0
 63 64 0
 -63 -64 0
 65 66 0
 -65 -66 0
 67 68 0
 -67 -68 0
 69 70 0
 -69 -70 0
 71 72 0
 -71 -72 0
 73 74 0
 -73 -74 0
 75 76 0
 -75 -76 0
 77 78 0
 -77 -78 0
 79 80 0
 -79 -80 0
 81 82 0
 -81 -82 0
 83 84 0
 -83 -84 0
 85 86 0
 -85 -86 0
 87 88 0
 -87 -88 0
 89 90 0
 -89 -90 0
 91 92 0
 -91 -92 0
 93 94 0
 -93 -94 0
 95 96 0
 -95 -96 0
 97 98 0
 -97 -98 0
 99 100 0
 -99 -100 0
 101 102 0
 -101 -102 0
 103 104 0
 -103 -104 0
 105 106 0
 -105 -106 0
 107 108 0
 -107 -108 0
 109 110 0
 -109 -110 0
 111 112 0
 -111 -112 0
 113 114 0
 -113 -114 0
 115 116 0
 -115 -116 0
 117 118 0
 -117 -118 0
 119 120 0
 -119 -120 0
 121 122 0
 -121 -122 0
 123 124 0
 -123 -124 0
 125 126 0
 -125 -126 0
 127 128 0
 -127 -128 0
 129 130 0
 -129 -130 0
 131 132 0
 -131 -132 0
 133 134 0
 -133 -134 0
 135 136 0
 -135 -136 0
 137 138 0
 -137 -138 0
 139 140 0
 -139 -140 0
 141 142 0
 -141 -142 0
 143 144 0
 -143 -144 0
 145 146 0
 -145 -146 0
 147 148 0
 -147 -148 0
 149 150 0
 -149 -150 0
 151 152 0
 -151 -152 0
 153 154 0
 -153 -154 0
 155 156 0
 -155 -156 0
 157 158 0
 -157 -158 0
 159 160 0
 -159 -160 0
 161 162 0
 -161 -162 0
 163 164 0
 -163 -164 0
 165 166 0
 -165 -166 0
 167 168 0
 -167 -168 0
 169 170 0
 -169 -170 0
 171 172 0
 -171 -172 0
 173 174 0
 -173 -174 0
 175 176 0
 -175 -176 0
 177 178 0
 -177 -178 0
 179 180 0
 -179 -180 0
 181 182 0
 -181 -182 0
 183 184 0
 -183 -184 0
 185 186 0
 -185 -186 0
 187 188 0
 -187 -188 0
 189 190 0
 -189 -190 0
 191 192 0
 -191 -192 0
 193 194 0
 -193 -194 0
 195 196 0
 -195 -196 0
 197 198 0
 -197 -198 0
 199 200 0
 -199 -200 0
 -1 201 0
 -2 202 0
 -3 -2 0
 -3 -2 0
 -3 -1 0
 -3 -2 203 0
 -3 -1 203 0
 -6 -4 204 0
 -6 -3 205 0
 -5 -3 206 0
 -5 -4 207 0
 -7 -6 208 0
 -7 -5 209 0
 -8 -5 210 0
 -8 -6 211 0
 -10 -7 212 0
 -10 -8 213 0
 -9 -8 214 0
 -9 -7 215 0
 -11 -10 0
 -11 -10 0
 -11 -9 0
 -11 -10 216 0
 -11 -9 216 0
 -13 -12 217 0
 -14 -11 218 0
 -13 -11 219 0
 -14 -12 220 0
 -15 -14 0
 -15 -14 0
 -15 -13 0
 -15 -14 221 0
 -15 -13 221 0
 -17 -15 222 0
 -17 -16 223 0
 -18 -16 224 0
 -18 -15 225 0
 -19 -18 0
 -19 -18 0
 -19 -17 0
 -19 -18 226 0
 -19 -17 226 0
 -21 -2 0
 -21 -2 0
 -21 -1 0
 -21 -2 227 0
 -21 -1 227 0
 -23 -22 -3 0
 -23 -22 -3 0
 -23 -21 -3 0
 -23 -21 -3 228 0
 -23 -22 -3 228 0
 -26 -23 -5 229 0
 -25 -24 -5 230 0
 -26 -23 -6 231 0
 -26 -24 -6 232 0
 -25 -24 -6 233 0
 -25 -23 -6 234 0
 -26 -24 -5 235 0
 -25 -23 -5 236 0
 -27 -25 -7 0
 -27 -25 -7 0
 -27 -26 -7 0
 -27 -26 -7 237 0
 -27 -25 -7 237 0
 -30 -27 -9 238 0
 -29 -28 -9 239 0
 -30 -28 -10 240 0
 -29 -27 -10 241 0
 -30 -27 -10 242 0
 -29 -28 -10 243 0
 -30 -28 -9 244 0
 -29 -27 -9 245 0
 -31 -30 -11 246 0
 -32 -29 -12 247 0
 -31 -30 -12 248 0
 -32 -29 -11 249 0
 -31 -29 -11 250 0
 -32 -30 -12 251 0
 -31 -29 -12 252 0
 -32 -30 -11 253 0
 -33 -31 -13 0
 -33 -31 -13 0
 -33 -31 -13 0
 -33 -31 -13 0
 -33 -31 -13 0
 -33 -32 -13 0
 -33 -31 -13 0
 -33 -31 -13 0
 -33 -32 -13 0
 -33 -32 -13 0
 -33 -31 -13 254 0
 -33 -31 -13 254 0
 -33 -32 -13 254 0
 -33 -32 -13 254 0
 -35 -33 -15 0
 -35 -33 -15 0
 -35 -34 -15 0
 -35 -34 -15 255 0
 -35 -33 -15 255 0
 -37 -35 -17 0
 -37 -35 -17 0
 -37 -36 -17 0
 -37 -35 -17 0
 -37 -36 -17 0
 -37 -36 -17 0
 -37 -35 -17 256 0
 -37 -36 -17 256 0
 -37 -35 -17 256 0
 -39 -38 -20 257 0
 -40 -37 -19 258 0
 -40 -37 -20 259 0
 -39 -38 -19 260 0
 -40 -38 -19 261 0
 -39 -37 -20 262 0
 -39 -37 -19 263 0
 -40 -38 -20 264 0
 -42 -22 265 0
 -41 -21 266 0
 -42 -21 267 0
 -41 -22 268 0
 -43 -42 -23 0
 -43 -42 -23 0
 -43 -42 -23 0
 -43 -42 -23 0
 -43 -42 -23 0
 -43 -41 -23 0
 -43 -41 -23 269 0
 -43 -41 -23 269 0
 -43 -42 -23 269 0
 -45 -43 -25 270 0
 -46 -44 -25 271 0
 -45 -43 -26 272 0
 -45 -44 -26 273 0
 -46 -44 -26 274 0
 -46 -43 -26 275 0
 -45 -44 -25 276 0
 -46 -43 -25 277 0
 -47 -45 -27 278 0
 -48 -46 -27 279 0
 -48 -45 -28 280 0
 -47 -46 -28 281 0
 -48 -46 -28 282 0
 -47 -45 -28 283 0
 -47 -46 -27 284 0
 -48 -45 -27 285 0
 -49 -47 -29 0
 -49 -47 -29 0
 -49 -48 -29 0
 -49 -47 -29 0
 -49 -48 -29 0
 -49 -48 -29 0
 -49 -47 -29 286 0
 -49 -47 -29 286 0
 -49 -48 -29 286 0
 -51 -50 -31 287 0
 -52 -49 -31 288 0
 -51 -49 -32 289 0
 -51 -50 -32 290 0
 -52 -50 -32 291 0
 -52 -49 -32 292 0
 -51 -49 -31 293 0
 -52 -50 -31 294 0
 -53 -52 -33 0
 -53 -52 -33 0
 -53 -51 -33 0
 -53 -51 -33 295 0
 -53 -52 -33 295 0
 -56 -54 -36 296 0
 -56 -53 -35 297 0
 -55 -54 -35 298 0
 -55 -53 -36 299 0
 -56 -53 -36 300 0
 -56 -54 -35 301 0
 -55 -53 -35 302 0
 -55 -54 -36 303 0
 -57 -55 -37 0
 -57 -55 -37 0
 -57 -56 -37 0
 -57 -56 -37 304 0
 -57 -55 -37 304 0
 -59 -57 -39 0
 -59 -57 -39 0
 -59 -57 -39 0
 -59 -57 -39 0
 -59 -57 -39 0
 -59 -58 -39 0
 -59 -58 -39 305 0
 -59 -57 -39 305 0
 -59 -58 -39 305 0
 -61 -42 0
 -61 -42 0
 -61 -41 0
 -61 -42 306 0
 -61 -41 306 0
 -63 -62 -44 307 0
 -63 -61 -44 308 0
 -64 -61 -43 309 0
 -64 -62 -43 310 0
 -63 -62 -43 311 0
 -63 -61 -43 312 0
 -64 -61 -44 313 0
 -64 -62 -44 314 0
 -65 -64 -45 0
 -65 -64 -45 0
 -65 -63 -45 0
 -65 -63 -45 315 0
 -65 -64 -45 315 0
 -67 -65 -48 316 0
 -67 -65 -47 317 0
 -68 -66 -47 318 0
 -68 -66 -48 319 0
 -67 -66 -48 320 0
 -67 -66 -47 321 0
 -68 -65 -47 322 0
 -68 -65 -48 323 0
 -69 -67 -49 324 0
 -70 -68 -49 325 0
 -70 -67 -50 326 0
 -69 -68 -50 327 0
 -70 -68 -50 328 0
 -69 -67 -50 329 0
 -69 -68 -49 330 0
 -70 -67 -49 331 0
 -72 -69 -51 332 0
 -72 -69 -52 333 0
 -71 -70 -51 334 0
 -71 -70 -52 335 0
 -72 -70 -52 336 0
 -72 -70 -51 337 0
 -71 -69 -52 338 0
 -71 -69 -51 339 0
 -74 -72 -53 340 0
 -74 -72 -54 341 0
 -74 -71 -53 342 0
 -74 -71 -54 343 0
 -73 -71 -54 344 0
 -73 -71 -53 345 0
 -73 -72 -54 346 0
 -73 -72 -53 347 0
 -76 -74 -56 348 0
 -75 -74 -55 349 0
 -75 -73 -56 350 0
 -75 -73 -55 351 0
 -76 -73 -55 352 0
 -76 -73 -56 353 0
 -76 -74 -55 354 0
 -75 -74 -56 355 0
 -78 -75 -58 356 0
 -78 -76 -57 357 0
 -77 -75 -57 358 0
 -78 -76 -58 359 0
 -77 -76 -58 360 0
 -78 -75 -57 361 0
 -77 -76 -57 362 0
 -77 -75 -58 363 0
 -79 -78 -59 0
 -79 -78 -59 0
 -79 -77 -59 0
 -79 -77 -59 364 0
 -79 -78 -59 364 0
 -81 -62 0
 -81 -62 0
 -81 -61 0
 -81 -62 365 0
 -81 -61 365 0
 -83 -81 -63 0
 -83 -81 -63 0
 -83 -81 -63 0
 -83 -81 -63 0
 -83 -81 -63 0
 -83 -82 -63 0
 -83 -82 -63 366 0
 -83 -82 -63 366 0
 -83 -81 -63 366 0
 -86 -83 -65 367 0
 -86 -84 -65 368 0
 -86 -84 -66 369 0
 -85 -83 -66 370 0
 -86 -83 -66 371 0
 -85 -84 -66 372 0
 -85 -84 -65 373 0
 -85 -83 -65 374 0
 -87 -85 -67 0
 -87 -85 -67 0
 -87 -85 -67 0
 -87 -85 -67 0
 -87 -85 -67 0
 -87 -86 -67 0
 -87 -85 -67 0
 -87 -85 -67 0
 -87 -86 -67 0
 -87 -86 -67 0
 -87 -85 -67 375 0
 -87 -85 -67 375 0
 -87 -86 -67 375 0
 -87 -86 -67 375 0
 -89 -87 -69 376 0
 -90 -87 -70 377 0
 -89 -88 -70 378 0
 -89 -88 -69 379 0
 -90 -88 -69 380 0
 -90 -88 -70 381 0
 -89 -87 -70 382 0
 -90 -87 -69 383 0
 -92 -89 -72 384 0
 -91 -90 -71 385 0
 -91 -90 -72 386 0
 -91 -89 -71 387 0
 -92 -89 -71 388 0
 -92 -90 -72 389 0
 -92 -90 -71 390 0
 -91 -89 -72 391 0
 -93 -91 -73 392 0
 -93 -92 -73 393 0
 -93 -92 -74 394 0
 -94 -91 -74 395 0
 -93 -91 -74 396 0
 -94 -92 -74 397 0
 -94 -92 -73 398 0
 -94 -91 -73 399 0
 -96 -94 -75 400 0
 -95 -94 -76 401 0
 -95 -93 -76 402 0
 -96 -93 -75 403 0
 -95 -93 -75 404 0
 -96 -93 -76 405 0
 -96 -94 -76 406 0
 -95 -94 -75 407 0
 -97 -96 -77 408 0
 -97 -95 -78 409 0
 -97 -96 -78 410 0
 -98 -95 -77 411 0
 -97 -95 -77 412 0
 -98 -96 -78 413 0
 -98 -95 -78 414 0
 -98 -96 -77 415 0
 -100 -98 -80 416 0
 -99 -97 -79 417 0
 -99 -98 -79 418 0
 -100 -97 -80 419 0
 -99 -97 -80 420 0
 -100 -98 -79 421 0
 -100 -97 -79 422 0
 -99 -98 -80 423 0
 -102 -82 424 0
 -101 -81 425 0
 -102 -81 426 0
 -101 -82 427 0
 -104 -102 -84 428 0
 -103 -101 -84 429 0
 -104 -101 -83 430 0
 -103 -102 -83 431 0
 -104 -102 -83 432 0
 -103 -101 -83 433 0
 -104 -101 -84 434 0
 -103 -102 -84 435 0
 -105 -103 -85 0
 -105 -103 -85 0
 -105 -103 -85 0
 -105 -103 -85 0
 -105 -103 -85 0
 -105 -104 -85 0
 -105 -103 -85 0
 -105 -103 -85 0
 -105 -104 -85 0
 -105 -104 -85 0
 -105 -103 -85 436 0
 -105 -103 -85 436 0
 -105 -104 -85 436 0
 -105 -104 -85 436 0
 -107 -105 -88 437 0
 -108 -106 -88 438 0
 -107 -105 -87 439 0
 -108 -106 -87 440 0
 -107 -106 -87 441 0
 -108 -105 -87 442 0
 -107 -106 -88 443 0
 -108 -105 -88 444 0
 -109 -107 -90 445 0
 -110 -108 -90 446 0
 -109 -108 -89 447 0
 -109 -107 -89 448 0
 -110 -107 -89 449 0
 -110 -108 -89 450 0
 -109 -108 -90 451 0
 -110 -107 -90 452 0
 -111 -110 -91 0
 -111 -110 -91 0
 -111 -109 -91 0
 -111 -110 -91 0
 -111 -109 -91 0
 -111 -110 -91 0
 -111 -109 -91 453 0
 -111 -109 -91 453 0
 -111 -110 -91 453 0
 -113 -112 -93 0
 -113 -112 -93 0
 -113 -111 -93 0
 -113 -112 -93 0
 -113 -111 -93 0
 -113 -112 -93 0
 -113 -111 -93 454 0
 -113 -111 -93 454 0
 -113 -112 -93 454 0
 -115 -114 -96 455 0
 -115 -113 -95 456 0
 -115 -114 -95 457 0
 -116 -113 -96 458 0
 -115 -113 -96 459 0
 -116 -114 -95 460 0
 -116 -113 -95 461 0
 -116 -114 -96 462 0
 -118 -115 -97 463 0
 -117 -115 -98 464 0
 -118 -116 -98 465 0
 -118 -116 -97 466 0
 -117 -116 -97 467 0
 -117 -116 -98 468 0
 -118 -115 -98 469 0
 -117 -115 -97 470 0
 -120 -117 -99 471 0
 -120 -117 -100 472 0
 -119 -118 -99 473 0
 -120 -118 -100 474 0
 -119 -118 -100 475 0
 -120 -118 -99 476 0
 -119 -117 -100 477 0
 -119 -117 -99 478 0
 -122 -102 479 0
 -122 -101 480 0
 -121 -101 481 0
 -121 -102 482 0
 -124 -121 -104 483 0
 -123 -122 -103 484 0
 -124 -122 -104 485 0
 -124 -121 -103 486 0
 -123 -121 -103 487 0
 -123 -122 -104 488 0
 -124 -122 -103 489 0
 -123 -121 -104 490 0
 -125 -124 -105 491 0
 -125 -123 -106 492 0
 -126 -124 -106 493 0
 -125 -123 -105 494 0
 -126 -123 -105 495 0
 -125 -124 -106 496 0
 -126 -123 -106 497 0
 -126 -124 -105 498 0
 -127 -125 -108 499 0
 -128 -126 -108 500 0
 -128 -125 -107 501 0
 -128 -126 -107 502 0
 -127 -126 -107 503 0
 -127 -125 -107 504 0
 -127 -126 -108 505 0
 -128 -125 -108 506 0
 -130 -127 -109 507 0
 -130 -128 -110 508 0
 -129 -128 -109 509 0
 -130 -127 -110 510 0
 -129 -127 -110 511 0
 -130 -128 -109 512 0
 -129 -128 -110 513 0
 -129 -127 -109 514 0
 -132 -129 -111 515 0
 -132 -130 -112 516 0
 -132 -129 -112 517 0
 -131 -130 -111 518 0
 -132 -130 -111 519 0
 -131 -129 -112 520 0
 -131 -130 -112 521 0
 -131 -129 -111 522 0
 -133 -132 -114 523 0
 -133 -132 -113 524 0
 -134 -131 -114 525 0
 -134 -131 -113 526 0
 -133 -131 -113 527 0
 -133 -131 -114 528 0
 -134 -132 -113 529 0
 -134 -132 -114 530 0
 -135 -133 -115 0
 -135 -133 -115 0
 -135 -133 -115 0
 -135 -133 -115 0
 -135 -133 -115 0
 -135 -134 -115 0
 -135 -134 -115 531 0
 -135 -134 -115 531 0
 -135 -133 -115 531 0
 -137 -135 -117 0
 -137 -135 -117 0
 -137 -135 -117 0
 -137 -135 -117 0
 -137 -135 -117 0
 -137 -136 -117 0
 -137 -135 -117 0
 -137 -135 -117 0
 -137 -136 -117 0
 -137 -136 -117 0
 -137 -135 -117 532 0
 -137 -135 -117 532 0
 -137 -136 -117 532 0
 -137 -136 -117 532 0
 -139 -138 -119 0
 -139 -138 -119 0
 -139 -137 -119 0
 -139 -137 -119 533 0
 -139 -138 -119 533 0
 -141 -122 0
 -141 -122 0
 -141 -121 0
 -141 -122 534 0
 -141 -121 534 0
 -143 -142 -123 0
 -143 -142 -123 0
 -143 -142 -123 0
 -143 -142 -123 0
 -143 -142 -123 0
 -143 -141 -123 0
 -143 -141 -123 535 0
 -143 -141 -123 535 0
 -143 -142 -123 535 0
 -145 -143 -125 0
 -145 -143 -125 0
 -145 -143 -125 0
 -145 -143 -125 0
 -145 -143 -125 0
 -145 -144 -125 0
 -145 -143 -125 0
 -145 -143 -125 0
 -145 -144 -125 0
 -145 -144 -125 0
 -145 -143 -125 536 0
 -145 -143 -125 536 0
 -145 -144 -125 536 0
 -145 -144 -125 536 0
 -147 -145 -127 0
 -147 -145 -127 0
 -147 -146 -127 0
 -147 -145 -127 0
 -147 -146 -127 0
 -147 -146 -127 0
 -147 -145 -127 537 0
 -147 -146 -127 537 0
 -147 -145 -127 537 0
 -149 -148 -130 538 0
 -149 -147 -130 539 0
 -149 -148 -129 540 0
 -149 -147 -129 541 0
 -150 -147 -129 542 0
 -150 -148 -129 543 0
 -150 -147 -130 544 0
 -150 -148 -130 545 0
 -152 -149 -131 546 0
 -152 -150 -131 547 0
 -151 -150 -132 548 0
 -152 -149 -132 549 0
 -151 -149 -132 550 0
 -152 -150 -132 551 0
 -151 -150 -131 552 0
 -151 -149 -131 553 0
 -153 -152 -133 554 0
 -154 -151 -134 555 0
 -153 -152 -134 556 0
 -154 -151 -133 557 0
 -153 -151 -133 558 0
 -154 -152 -134 559 0
 -153 -151 -134 560 0
 -154 -152 -133 561 0
 -155 -153 -135 0
 -155 -153 -135 0
 -155 -153 -135 0
 -155 -153 -135 0
 -155 -153 -135 0
 -155 -154 -135 0
 -155 -154 -135 562 0
 -155 -154 -135 562 0
 -155 -153 -135 562 0
 -158 -155 -138 563 0
 -158 -156 -137 564 0
 -158 -155 -137 565 0
 -158 -156 -138 566 0
 -157 -156 -138 567 0
 -157 -155 -137 568 0
 -157 -156 -137 569 0
 -157 -155 -138 570 0
 -160 -158 -140 571 0
 -160 -157 -140 572 0
 -160 -157 -139 573 0
 -159 -158 -139 574 0
 -160 -158 -139 575 0
 -159 -157 -139 576 0
 -159 -157 -140 577 0
 -159 -158 -140 578 0
 -161 -142 579 0
 -161 -141 580 0
 -162 -141 581 0
 -162 -142 582 0
 -164 -161 -143 583 0
 -164 -162 -144 584 0
 -163 -161 -144 585 0
 -164 -162 -143 586 0
 -163 -162 -143 587 0
 -164 -161 -144 588 0
 -163 -162 -144 589 0
 -163 -161 -143 590 0
 -166 -164 -145 591 0
 -165 -164 -146 592 0
 -166 -163 -146 593 0
 -166 -163 -145 594 0
 -165 -163 -145 595 0
 -165 -163 -146 596 0
 -166 -164 -146 597 0
 -165 -164 -145 598 0
 -167 -166 -147 599 0
 -168 -165 -147 600 0
 -167 -166 -148 601 0
 -167 -165 -148 602 0
 -168 -165 -148 603 0
 -168 -166 -148 604 0
 -167 -165 -147 605 0
 -168 -166 -147 606 0
 -170 -167 -150 607 0
 -170 -168 -150 608 0
 -170 -168 -149 609 0
 -169 -167 -149 610 0
 -170 -167 -149 611 0
 -169 -168 -149 612 0
 -169 -168 -150 613 0
 -169 -167 -150 614 0
 -171 -170 -152 615 0
 -172 -170 -151 616 0
 -171 -169 -151 617 0
 -171 -169 -152 618 0
 -172 -169 -152 619 0
 -172 -169 -151 620 0
 -171 -170 -151 621 0
 -172 -170 -152 622 0
 -173 -171 -153 0
 -173 -171 -153 0
 -173 -172 -153 0
 -173 -171 -153 0
 -173 -172 -153 0
 -173 -172 -153 0
 -173 -171 -153 623 0
 -173 -172 -153 623 0
 -173 -171 -153 623 0
 -176 -174 -156 624 0
 -175 -174 -155 625 0
 -175 -173 -155 626 0
 -176 -173 -156 627 0
 -175 -173 -156 628 0
 -176 -173 -155 629 0
 -176 -174 -155 630 0
 -175 -174 -156 631 0
 -178 -175 -158 632 0
 -178 -176 -158 633 0
 -178 -175 -157 634 0
 -177 -176 -157 635 0
 -178 -176 -157 636 0
 -177 -175 -157 637 0
 -177 -176 -158 638 0
 -177 -175 -158 639 0
 -179 -177 -160 640 0
 -179 -177 -159 641 0
 -180 -178 -159 642 0
 -180 -178 -160 643 0
 -179 -178 -160 644 0
 -179 -178 -159 645 0
 -180 -177 -159 646 0
 -180 -177 -160 647 0
 -181 -162 0
 -181 -162 0
 -181 -161 0
 -181 -162 648 0
 -181 -161 648 0
 -183 -181 -163 0
 -183 -181 -163 0
 -183 -182 -163 0
 -183 -181 -163 0
 -183 -182 -163 0
 -183 -182 -163 0
 -183 -181 -163 649 0
 -183 -181 -163 649 0
 -183 -182 -163 649 0
 -185 -184 -165 0
 -185 -184 -165 0
 -185 -183 -165 0
 -185 -183 -165 650 0
 -185 -184 -165 650 0
 -187 -186 -167 0
 -187 -186 -167 0
 -187 -185 -167 0
 -187 -186 -167 0
 -187 -185 -167 0
 -187 -186 -167 0
 -187 -185 -167 651 0
 -187 -185 -167 651 0
 -187 -186 -167 651 0
 -190 -187 -169 652 0
 -190 -187 -170 653 0
 -190 -188 -169 654 0
 -189 -188 -170 655 0
 -190 -188 -170 656 0
 -189 -188 -169 657 0
 -189 -187 -170 658 0
 -189 -187 -169 659 0
 -191 -189 -171 0
 -191 -189 -171 0
 -191 -190 -171 0
 -191 -189 -171 0
 -191 -190 -171 0
 -191 -190 -171 0
 -191 -189 -171 660 0
 -191 -190 -171 660 0
 -191 -189 -171 660 0
 -193 -191 -173 0
 -193 -191 -173 0
 -193 -191 -173 0
 -193 -191 -173 0
 -193 -191 -173 0
 -193 -192 -173 0
 -193 -191 -173 661 0
 -193 -192 -173 661 0
 -193 -192 -173 661 0
 -195 -193 -176 662 0
 -195 -193 -175 663 0
 -196 -194 -176 664 0
 -195 -194 -175 665 0
 -196 -194 -175 666 0
 -195 -194 -176 667 0
 -196 -193 -175 668 0
 -196 -193 -176 669 0
 -197 -195 -177 0
 -197 -195 -177 0
 -197 -196 -177 0
 -197 -195 -177 0
 -197 -196 -177 0
 -197 -195 -177 0
 -197 -195 -177 670 0
 -197 -196 -177 670 0
 -197 -196 -177 670 0
 -200 -197 -180 671 0
 -200 -198 -180 672 0
 -199 -198 -179 673 0
 -200 -197 -179 674 0
 -199 -197 -179 675 0
 -200 -198 -179 676 0
 -199 -198 -180 677 0
 -199 -197 -180 678 0
